letting n_nurses=25
letting n_days=7
letting n_shift_types=4
letting max_covers=8
letting t_covers=35
letting covers=[5,3,0,0,0,0,0,0,1,1,0,0,0,2,1,0,3,4,0,0,5,8,0,0,1,1,0,0]
letting prefes=[2,1,2,2,2,2,2,1,2,1,2,1,2,2,2,2,2,1,1,2,1,2,2,3,2,1,2,1,2,2,2,2,2,2,2,1,2,1,2,2,1,1,1,1,2,2,1,2,1,2,2,3,2,1,2,2,2,2,2,2,1,1,2,1,2,1,2,2,2,1,1,1,2,1,1,2,2,2,2,2,2,1,2,2,1,1,1,1,2,2,2,1,1,1,2,2,1,1,1,1,1,1,1,1,2,1,2,2,1,1,2,2,1,1,2,1,2,2,2,2,1,1,2,1,1,1,1,1,1,1,2,1,2,1,2,2,1,1,2,1,2,2,2,2,2,1,2,1,2,1,2,2,2,2,1,1,2,1,1,2,1,2,2,2,2,1,2,2,2,1,2,2,2,2,2,2,2,1,2,2,2,2,1,1,2,2,2,2,2,2,2,2,2,1,2,2,2,1,1,2,2,1,2,1,2,2,2,2,2,2,1,1,2,1,1,2,2,2,2,2,2,2,2,2,2,1,2,2,1,2,2,1,2,1,2,2,2,2,1,1,2,1,1,2,2,2,1,2,2,1,2,2,2,1,2,2,2,2,2,1,2,2,2,2,2,2,1,1,2,1,1,2,2,2,1,2,2,2,2,2,2,2,2,2,1,1,1,1,2,1,2,2,2,2,2,2,2,1,1,2,2,2,2,3,2,1,2,2,2,1,1,2,1,2,2,1,2,1,2,1,2,2,1,1,2,2,1,2,2,2,2,3,2,1,2,1,1,1,2,1,1,1,2,1,2,2,2,2,2,2,1,1,1,1,1,1,2,1,2,2,2,2,2,2,2,1,2,2,2,2,2,1,2,1,1,2,2,1,2,2,2,1,1,2,2,2,2,2,2,1,1,2,1,1,2,1,2,2,1,1,1,1,2,2,1,2,2,2,1,1,1,1,2,1,2,2,1,1,2,2,1,1,2,1,2,2,2,1,1,1,2,1,1,2,1,1,1,1,1,1,2,1,2,2,1,1,2,1,2,2,2,2,2,2,2,2,1,1,1,1,2,2,1,1,2,1,2,2,2,2,2,2,1,1,1,1,2,1,1,2,2,2,1,1,2,1,1,2,2,2,1,1,2,1,1,2,2,2,2,2,2,1,1,2,2,1,1,2,2,2,2,1,2,1,1,2,2,2,1,1,2,1,1,2,2,2,1,2,2,1,1,2,2,1,2,2,2,2,2,2,2,1,2,2,2,2,1,1,2,2,2,2,2,2,1,2,2,1,2,2,2,1,2,2,2,2,2,2,2,1,2,2,2,2,1,1,2,1,2,2,1,2,2,2,2,1,2,2,2,1,2,2,2,2,1,1,2,1,2,2,2,2,2,2,2,2,1,2,2,2,2,3,2,1,2,2,2,1,2,2,2,2,1,1,2,1,1,2,2,2,1,1,2,1,1,2,1,2,1,2,2,1,1,2,2,1,2,2,2,2,2,1,2,2,2,2,2,2,1,1,2,1,1,2,2,2,2,2,2,2,2,2,2,1,2,2,2,2,2,1,2,2,2,2,2,2,1,1,2,1,1,2,2,2,2,2,2,2,2,2]
letting ub =  211
